c Random generated cnf formula, satisfiable: false
p cnf 10 50
-3 -10 -1 0
-8 -6 7 0
2 10 -3 0
-6 -10 8 0
9 -2 8 0
1 -6 -3 0
-3 -9 -6 0
-1 5 9 0
-9 7 -5 0
4 -9 10 0
8 -1 -4 0
7 -1 -4 0
8 4 1 0
1 -3 8 0
2 7 -8 0
-7 -9 1 0
2 -1 4 0
9 -5 10 0
1 9 -3 0
6 -9 -10 0
-4 -9 3 0
10 -3 7 0
9 2 3 0
7 -4 3 0
-10 1 -3 0
-7 5 -9 0
-4 3 8 0
-2 6 -4 0
-9 3 6 0
1 -4 9 0
5 -2 3 0
-8 -5 6 0
-2 -4 -9 0
-8 5 -2 0
1 -3 10 0
2 10 1 0
4 -7 -9 0
7 4 -10 0
6 -8 3 0
1 8 -10 0
5 3 10 0
-6 -3 7 0
-8 5 1 0
-6 8 -7 0
-6 -2 1 0
10 -2 -1 0
8 -9 -3 0
3 -4 -10 0
-7 -4 -3 0
9 -7 -5 0
